166 14745 18335
3097
2490
11084
1263
2280
1831
10
27
9548
4129
11387
11235
1115
8539
2893
10869
10268
5450
7402
126
12268
5519
13809
6013
10608
4150
5433
1473
12693
8963
4511
1832
11953
2823
1699
3783
254
2568
9943
7181
7022
11450
6972
2401
13137
9642
3225
10736
899
13470
244
3572
9279
9812
10849
6283
3394
1599
9454
10684
5169
3338
13153
11451
7300
1336
861
11444
10840
9547
11856
3065
9374
9659
3632
12482
7173
5331
5953
7646
5010
3581
1049
9399
14551
12366
5553
6694
12305
14631
6550
443
5996
5375
8713
14084
11660
5443
9850
5509
9479
13620
5640
13742
6079
4021
1116
1023
4505
5007
12486
9405
1721
9713
1986
1513
14402
5431
1863
14800
11236
11799
2461
14793
8174
9982
10764
8465
952
5903
11573
11066
13204
12395
6522
7237
9181
8561
14836
1201
3786
13544
10787
8541
9635
12112
14832
297
949
11166
10125
13884
10241
11661
13083
8784
5548
5184
8331
10870
1331
3591
8641
12499
314
7793

